0 66 96
1 90 106
2 99 111
3 98 111
4 113 113
5 92 113
6 107 111
7 80 112
8 101 110
9 63 109
10 59 105
11 56 103
12 97 102
13 89 101
14 95 97
15 84 94
16 59 96
17 84 93
18 95 94
19 76 86
20 82 86
21 83 86
22 75 84
23 64 82
24 59 78
25 49 79
26 71 79
27 62 81
28 64 80
29 72 81
30 33 81
31 71 80
32 47 75
33 70 69
34 56 59
35 47 62
36 57 60
37 54 60
38 22 60
39 49 65
40 37 64
41 35 59
42 54 55
43 45 51
44 33 49
45 40 48
46 29 50
47 15 48
48 36 46
49 21 46
50 36 44
51 35 44
52 34 43
53 25 42
54 24 42
55 27 42
56 26 41
57 30 42
58 43 42
59 14 43
60 17 43
61 31 43
62 34 43
63 37 40
64 17 38
65 24 36
66 28 36
67 28 37
68 12 36
69 24 33
70 31 30
71 21 26
72 20 25
73 12 24
74 11 22
75 11 21
76 21 20
77 12 17
78 8 16
79 15 16
80 9 14
81 6 13
82 12 11
83 8 10
84 9 9
85 4 9
86 4 8
87 7 9
88 5 8
89 5 8
90 6 7
91 5 6
92 4 4
93 4 3
94 2 2
95 1 2
96 1 1

